HUN,8,6,113
4,23,5,25,2,29,3,28,1,30,0,25
1,24,0,27,2,25,3,25,4,26,5,24
1,24,0,24,5,26,3,28,4,26,2,25
5,30,0,23,2,23,1,24,3,24,4,26
5,27,4,29,2,30,3,21,1,24,0,24
1,23,0,29,2,29,5,30,4,25,3,29
5,21,3,26,4,30,1,27,2,21,0,25
5,27,1,21,2,28,3,28,4,21,0,29
